1 -1 2 0
1 3 -2 0
1 -4 0
1 -1 0
1 5 0
1 6 -7 0
1 -8 -7 0
1 -9 10 0
1 11 -1 0
1 7 -12 0
1 -13 -14 0
1 11 3 0
1 -6 0
1 -15 7 0
1 -13 7 0
1 12 -13 0
1 2 -7 0
1 16 -7 0
1 7 -1 0
1 4 17 0
1 15 0
1 -14 -11 0
1 6 11 0
1 -7 -13 0
1 -13 17 0
1 -2 7 0
1 -16 1 0
1 -8 9 0
1 11 0
1 -7 11 0
1 15 -3 0
1 -12 -10 0
1 -4 3 0
1 9 -11 0
1 -16 6 0
1 13 -8 0
1 -18 0
1 5 1 0
1 -13 16 0
1 -7 14 0
1 8 0
1 -3 7 0
1 17 -19 0
1 -3 -13 0
1 2 0
1 11 -3 0
1 -7 0
1 -6 3 0
1 13 -11 0
1 -13 -7 0
1 -11 13 0
1 -16 20 0
1 12 3 0
1 7 -18 0
1 20 0
1 -3 5 0
1 -17 -12 0
1 1 -12 0
1 -1 12 0
1 -3 16 0
1 6 -14 0
1 13 -12 0
1 -20 16 0
1 12 6 0
1 18 11 0
1 21 0
1 4 16 0
1 3 8 0
1 13 1 0
1 -1 16 0
1 -21 7 0
1 -6 -3 0
1 -21 -12 0
1 -12 -19 0
1 -6 -16 0
1 6 7 0
1 3 0
1 -16 13 0
1 -16 3 0
1 10 0
1 10 -7 0
1 3 -13 0
1 21 -13 0
1 -17 0
1 7 11 0
1 11 -13 0
1 -3 2 0
1 21 -6 0
1 13 -21 0
1 -13 -12 0
1 -21 -14 0
1 -12 -16 0
1 11 6 0
1 3 7 0
1 -6 12 0
1 -11 9 0
1 13 0
1 6 18 0
1 -12 13 0
1 -10 12 0
1 -8 -12 0
1 -7 18 0
1 16 6 0
1 -11 7 0
1 -14 -12 0
1 3 -7 0
1 -3 -10 0
1 19 -12 0
1 6 -16 0
1 9 10 0
1 16 -11 0
1 16 -21 0
1 -2 -6 0
1 -13 6 0
1 -14 0
1 -19 -11 0
1 -16 4 0
1 -13 11 0
1 -16 5 0
1 -16 12 0
1 -9 0
1 -3 11 0
1 -7 -16 0
1 9 6 0
1 12 0
1 -12 -7 0
1 22 -23 0
1 12 24 0
1 25 0
1 26 22 0
1 -3 27 0
1 25 -28 0
1 29 0
1 30 0
1 17 14 0
1 31 -19 0
1 13 26 0
1 -27 -32 0
1 3 -6 0
1 23 -32 0
1 23 31 0
1 17 -33 0
1 -31 2 0
1 -18 25 0
1 -28 0
1 27 31 0
1 -26 0
1 -11 -33 0
1 -30 27 0
1 -3 -34 0
1 -31 22 0
1 22 25 0
1 -22 27 0
1 32 22 0
1 -34 -11 0
1 19 0
1 25 34 0
1 25 30 0
1 31 33 0
1 -16 0
1 -25 -27 0
1 32 0
1 -30 26 0
1 -13 25 0
1 33 35 0
1 33 -22 0
1 24 0
1 31 0
1 34 -27 0
1 -6 -25 0
1 31 25 0
1 -32 34 0
1 27 26 0
1 -34 -25 0
1 -28 25 0
1 25 -26 0
1 25 -27 0
1 -33 -28 0
1 -27 25 0
1 -16 -1 0
1 -16 -7 0
1 -27 -25 0
1 26 -32 0
1 -25 -14 0
1 -26 32 0
1 22 15 0
1 15 34 0
1 -31 -32 0
1 22 -10 0
1 24 -5 0
1 -20 25 0
1 -27 33 0
1 -24 -34 0
1 -33 -23 0
1 -27 -26 0
1 -23 0
1 -29 -34 0
1 -33 -27 0
1 -13 -21 0
1 -3 34 0
1 -26 -13 0
1 -22 0
1 25 29 0
1 -7 -33 0
1 32 27 0
1 34 0
1 34 22 0
1 35 -13 0
1 -31 -6 0
1 35 -30 0
1 -26 22 0
1 -33 -12 0
1 -33 -19 0
1 -33 27 0
1 34 12 0
1 -26 -3 0
1 -28 -30 0
1 35 -32 0
1 -32 24 0
1 -27 0
1 -31 -30 0
1 -22 -31 0
1 34 27 0
1 7 3 0
1 -25 34 0
1 26 -31 0
1 -27 22 0
1 -22 28 0
1 -32 30 0
1 -22 -16 0
1 25 20 0
1 -27 14 0
1 27 -3 0
1 22 31 0
1 -31 26 0
1 -6 26 0
1 -6 -33 0
1 22 35 0
1 -26 35 0
1 33 -28 0
h 36 -31 14 0
1 -36 0
h 37 12 0
1 -37 0
h 38 -27 0
1 -38 0
h 39 10 0
1 -39 0
h 40 12 0
1 -40 0
h -33 23 0
h 33 -23 0
h 41 2 0
1 -41 0
h 42 13 0
1 -42 0
h 43 32 0
1 -43 0
h 44 12 0
1 -44 0
h 45 -35 0
1 -45 0
h 46 -12 -2 0
1 -46 0
h 47 -22 0
1 -47 0
h 48 32 0
1 -48 0
h 49 13 0
1 -49 0
h 50 19 0
1 -50 0
h 51 -27 0
1 -51 0
h 52 7 0
2 -52 0
